<number of tasks>
50

<cycle time>
1000

<order strength>
0.896


<task times>
1 46
2 73
3 131
4 139
5 163
6 222
7 90
8 340
9 48
10 150
11 140
12 85
13 197
14 151
15 183
16 195
17 168
18 103
19 73
20 248
21 67
22 67
23 137
24 112
25 62
26 200
27 115
28 217
29 40
30 59
31 108
32 53
33 91
34 125
35 227
36 281
37 226
38 72
39 54
40 207
41 26
42 107
43 120
44 270
45 175
46 53
47 85
48 102
49 187
50 252

<precedence relations>
1,4
1,5
1,6
1,7
2,4
2,5
2,6
2,7
3,4
3,5
3,6
3,7
4,8
4,9
5,8
5,9
6,8
6,9
7,8
7,9
8,10
8,11
8,12
9,10
9,11
9,12
10,13
10,14
10,15
11,13
11,14
11,15
12,13
12,14
12,15
13,16
14,16
15,16
16,17
16,18
17,19
18,20
18,24
19,21
19,22
19,23
19,24
20,21
20,22
21,45
22,25
22,26
23,32
23,33
24,25
24,26
25,27
25,28
25,29
26,27
26,28
26,29
27,30
27,31
27,32
28,30
28,31
28,32
29,30
29,31
29,32
30,33
30,34
30,35
30,36
31,41
32,34
32,35
32,36
32,39
33,39
34,38
34,40
35,37
35,38
36,37
36,38
37,44
37,45
38,41
38,42
39,42
40,44
40,50
41,43
42,43
43,44
43,45
43,46
44,47
44,48
44,49
46,49
46,50

<end>
